

*************************************************************

   NEOS Server Version 6.0
   Job#     : 15887861
   Password : IkoZhtUe
   User     : 
   Solver   : milp:Gurobi:AMPL
   Start    : 2025-04-15 11:07:20
   End      : 2025-04-15 11:07:31
   Host     : prod-sub-1.neos-server.org

   Disclaimer:

   This information is provided without any express or
   implied warranty. In particular, there is no warranty
   of any kind concerning the fitness of this
   information for any particular purpose.

   Announcements:
*************************************************************
You are using the solver gurobi_ampl.
Checking ampl.mod for gurobi_options...
Checking ampl.com for gurobi_options...
Executing AMPL.
processing data.
processing commands.
Executing on prod-exec-6.neos-server.org
C = 9

set N := 1 2 3 4 5 6 7;

:   P   W    :=
1   6   2
2   5   3
3   8   6
4   9   7
5   6   5
6   7   9
7   3   4
;

subject to C_capacity:
	2*X[1] + 3*X[2] + 6*X[3] + 7*X[4] + 5*X[5] + 9*X[6] + 4*X[7] <= 9;

maximize objective_function:
	6*X[1] + 5*X[2] + 8*X[3] + 9*X[4] + 6*X[5] + 7*X[6] + 3*X[7];


"option presolve 10;" used, but "option presolve 2;" would suffice.
7 variables, all binary
1 constraint, all linear; 7 nonzeros
	1 inequality constraint
1 linear objective; 7 nonzeros.

Gurobi 12.0.1:   tech:threads = 4
Set parameter LogToConsole to value 1
  tech:outlev = 1

AMPL MP initial flat model has 7 variables (0 integer, 7 binary);
Objectives: 1 linear; 
Constraints:  1 linear;

AMPL MP final model has 7 variables (0 integer, 7 binary);
Objectives: 1 linear; 
Constraints:  1 linear;


Set parameter InfUnbdInfo to value 1
Gurobi Optimizer version 12.0.1 build v12.0.1rc0 (linux64 - "Rocky Linux 8.10 (Green Obsidian)")

CPU model: Intel(R) Xeon(R) Gold 6140 CPU @ 2.30GHz, instruction set [SSE2|AVX|AVX2|AVX512]
Thread count: 36 physical cores, 72 logical processors, using up to 4 threads

Non-default parameters:
InfUnbdInfo  1
Threads  4

Optimize a model with 1 rows, 7 columns and 7 nonzeros
Model fingerprint: 0xa8d5ad9c
Variable types: 0 continuous, 7 integer (0 binary)
Coefficient statistics:
  Matrix range     [2e+00, 9e+00]
  Objective range  [3e+00, 9e+00]
  Bounds range     [1e+00, 1e+00]
  RHS range        [9e+00, 9e+00]
Found heuristic solution: objective 14.0000000
Presolve removed 1 rows and 7 columns
Presolve time: 0.00s
Presolve: All rows and columns removed

Explored 0 nodes (0 simplex iterations) in 0.00 seconds (0.00 work units)
Thread count was 1 (of 72 available processors)

Solution count 2: 15 14 

Optimal solution found (tolerance 1.00e-04)
Best objective 1.500000000000e+01, best bound 1.500000000000e+01, gap 0.0000%
Gurobi 12.0.1: optimal solution; objective 15
0 simplex iterations
objective_function = 15

X [*] :=
1  1
2  0
3  0
4  1
5  0
6  0
7  0
;

NEOS Server Home

